
Gurobi 10.0.3 (win64, Python) logging started Tue Jan 16 13:32:21 2024

Set parameter Username
Set parameter LogFile to value "gurobi.log"
Academic license - for non-commercial use only - expires 2024-09-16
